50
7
5
1
36 30
100 45
130 50
40 130
70 110
135 100
36 30
100 45
130 50
40 130
70 110
135 100
54 108
116 50
124 50
48 125
110 43
128 108
28 40
148 66
88 150
64 116
87 111
102 42
61 112
30 129
86 46
111 49
91 118
40 27
98 48
8 86
100 49
118 96
19 29
132 54
52 132
115 103
56 106
125 91
122 53
91 47
160 100
126 51
47 122
134 48
130 49
71 104
14 6
57 130
109 7
65 112
119 54
77 114
97 44
136 53
4 30
113 66
70 104
17 34
101 47
141 53
